ilp_joint/output/deposition_ilp.lp
Maximize
  2.0087131331315863e-04 Z_124_0_0 + 0.0013221375480543 Z_124_0_1
   + 0.566339471373401 Z_124_0_2 + 0.00143844819502693 Z_124_0_3
   + 0.3306990715702046 Z_124_0_4 + 0.00446561263575518 Z_124_1_0
   + 0.099015601335088 Z_124_1_1 + 0.0331555572026133 Z_124_1_2
   + 0.0143356575342827 Z_124_1_3 + 0.7490275712922608 Z_124_1_4
   + 2.0087131331315863e-04 Z_124_8_0 + 0.0013221375480543 Z_124_8_1
   + 0.566339471373401 Z_124_8_2 + 0.00143844819502693 Z_124_8_3
   + 0.3306990715702046 Z_124_8_4
Subject To
 constraint1_1240: Z_124_0_0 + Z_124_0_1 + Z_124_0_2 + Z_124_0_3
   + Z_124_0_4 <= 1
 constraint1_1241: Z_124_1_0 + Z_124_1_1 + Z_124_1_2 + Z_124_1_3
   + Z_124_1_4 <= 1
 constraint1_1248: Z_124_8_0 + Z_124_8_1 + Z_124_8_2 + Z_124_8_3
   + Z_124_8_4 <= 1
 constraint2_1240: Z_124_0_0 + Z_124_1_0 + Z_124_8_0 <= 1
 constraint2_1241: Z_124_0_1 + Z_124_1_1 + Z_124_8_1 <= 1
 constraint2_1242: Z_124_0_2 + Z_124_1_2 + Z_124_8_2 <= 1
 constraint2_1243: Z_124_0_3 + Z_124_1_3 + Z_124_8_3 <= 1
Bounds
Binaries
 Z_124_0_0 Z_124_0_1 Z_124_0_2 Z_124_0_3 Z_124_0_4 Z_124_1_0 Z_124_1_1
 Z_124_1_2 Z_124_1_3 Z_124_1_4 Z_124_8_0 Z_124_8_1 Z_124_8_2 Z_124_8_3
 Z_124_8_4
End
