ilp_joint/output/deposition_ilp.mps
NAME deposition_srl_ilp
* Max problem is converted into Min one
ROWS
 N  OBJ
 L  constraint1_4262
 L  constraint1_4260
 L  constraint1_4261
 L  constraint1_4264
 L  constraint1_4265
 L  constraint1_4263
 L  constraint1_5850
 L  constraint2_4260
 L  constraint2_4261
 L  constraint2_4262
 L  constraint2_4263
 L  constraint2_5850
 L  constraint2_5851
 L  constraint2_5852
 L  constraint2_5853
COLUMNS
    MARKER    'MARKER'                 'INTORG'
    Z_426_2_0  OBJ       -6.3287375013821538e-03
    Z_426_2_0  constraint1_4262  1
    Z_426_2_0  constraint2_4260  1
    Z_426_2_1  OBJ       -8.9849698471392014e-03
    Z_426_2_1  constraint1_4262  1
    Z_426_2_1  constraint2_4261  1
    Z_426_2_2  OBJ       -8.2421663436336756e-01
    Z_426_2_2  constraint1_4262  1
    Z_426_2_2  constraint2_4262  1
    Z_426_2_3  OBJ       -2.3777413600444865e-02
    Z_426_2_3  constraint1_4262  1
    Z_426_2_3  constraint2_4263  1
    Z_426_0_0  OBJ       -1.1754787085030017e-02
    Z_426_0_0  constraint1_4260  1
    Z_426_0_0  constraint2_4260  1
    Z_426_0_1  OBJ       -2.5140477589072920e-02
    Z_426_0_1  constraint1_4260  1
    Z_426_0_1  constraint2_4261  1
    Z_426_0_2  OBJ       -7.8975811611353322e-02
    Z_426_0_2  constraint1_4260  1
    Z_426_0_2  constraint2_4262  1
    Z_426_0_3  OBJ       -5.2933397947919437e-02
    Z_426_0_3  constraint1_4260  1
    Z_426_0_3  constraint2_4263  1
    Z_426_1_0  OBJ       -7.4387173380144467e-01
    Z_426_1_0  constraint1_4261  1
    Z_426_1_0  constraint2_4260  1
    Z_426_1_1  OBJ       -3.7429008609574058e-02
    Z_426_1_1  constraint1_4261  1
    Z_426_1_1  constraint2_4261  1
    Z_426_1_2  OBJ       -5.7599969363653193e-03
    Z_426_1_2  constraint1_4261  1
    Z_426_1_2  constraint2_4262  1
    Z_426_1_3  OBJ       -2.2014399086330091e-01
    Z_426_1_3  constraint1_4261  1
    Z_426_1_3  constraint2_4263  1
    Z_426_4_0  OBJ       -3.4115745490001925e-01
    Z_426_4_0  constraint1_4264  1
    Z_426_4_0  constraint2_4260  1
    Z_426_4_1  OBJ       -2.5596652550504251e-02
    Z_426_4_1  constraint1_4264  1
    Z_426_4_1  constraint2_4261  1
    Z_426_4_2  OBJ       -8.0697847827681749e-03
    Z_426_4_2  constraint1_4264  1
    Z_426_4_2  constraint2_4262  1
    Z_426_4_3  OBJ       -5.8750903517284381e-01
    Z_426_4_3  constraint1_4264  1
    Z_426_4_3  constraint2_4263  1
    Z_426_5_0  OBJ       -9.1517122865808959e-02
    Z_426_5_0  constraint1_4265  1
    Z_426_5_0  constraint2_4260  1
    Z_426_5_1  OBJ       -1.8457335474610354e-01
    Z_426_5_1  constraint1_4265  1
    Z_426_5_1  constraint2_4261  1
    Z_426_5_2  OBJ       -6.1135143493565858e-03
    Z_426_5_2  constraint1_4265  1
    Z_426_5_2  constraint2_4262  1
    Z_426_5_3  OBJ       -9.8046046393936881e-02
    Z_426_5_3  constraint1_4265  1
    Z_426_5_3  constraint2_4263  1
    Z_426_3_0  OBJ       -1.1754787085030017e-02
    Z_426_3_0  constraint1_4263  1
    Z_426_3_0  constraint2_4260  1
    Z_426_3_1  OBJ       -2.5140477589072920e-02
    Z_426_3_1  constraint1_4263  1
    Z_426_3_1  constraint2_4261  1
    Z_426_3_2  OBJ       -7.8975811611353322e-02
    Z_426_3_2  constraint1_4263  1
    Z_426_3_2  constraint2_4262  1
    Z_426_3_3  OBJ       -5.2933397947919437e-02
    Z_426_3_3  constraint1_4263  1
    Z_426_3_3  constraint2_4263  1
    Z_585_0_0  OBJ       -1.0026302693761091e-02
    Z_585_0_0  constraint1_5850  1
    Z_585_0_0  constraint2_5850  1
    Z_585_0_1  OBJ       -5.7264574909746463e-03
    Z_585_0_1  constraint1_5850  1
    Z_585_0_1  constraint2_5851  1
    Z_585_0_2  OBJ       -7.2787833932188706e-01
    Z_585_0_2  constraint1_5850  1
    Z_585_0_2  constraint2_5852  1
    Z_585_0_3  OBJ       -2.4480642187471487e-02
    Z_585_0_3  constraint1_5850  1
    Z_585_0_3  constraint2_5853  1
    MARKER    'MARKER'                 'INTEND'
RHS
    RHS1      constraint1_4262  1
    RHS1      constraint1_4260  1
    RHS1      constraint1_4261  1
    RHS1      constraint1_4264  1
    RHS1      constraint1_4265  1
    RHS1      constraint1_4263  1
    RHS1      constraint1_5850  1
    RHS1      constraint2_4260  1
    RHS1      constraint2_4261  1
    RHS1      constraint2_4262  1
    RHS1      constraint2_4263  1
    RHS1      constraint2_5850  1
    RHS1      constraint2_5851  1
    RHS1      constraint2_5852  1
    RHS1      constraint2_5853  1
BOUNDS
 UP BND1      Z_426_2_0  1
 UP BND1      Z_426_2_1  1
 UP BND1      Z_426_2_2  1
 UP BND1      Z_426_2_3  1
 UP BND1      Z_426_0_0  1
 UP BND1      Z_426_0_1  1
 UP BND1      Z_426_0_2  1
 UP BND1      Z_426_0_3  1
 UP BND1      Z_426_1_0  1
 UP BND1      Z_426_1_1  1
 UP BND1      Z_426_1_2  1
 UP BND1      Z_426_1_3  1
 UP BND1      Z_426_4_0  1
 UP BND1      Z_426_4_1  1
 UP BND1      Z_426_4_2  1
 UP BND1      Z_426_4_3  1
 UP BND1      Z_426_5_0  1
 UP BND1      Z_426_5_1  1
 UP BND1      Z_426_5_2  1
 UP BND1      Z_426_5_3  1
 UP BND1      Z_426_3_0  1
 UP BND1      Z_426_3_1  1
 UP BND1      Z_426_3_2  1
 UP BND1      Z_426_3_3  1
 UP BND1      Z_585_0_0  1
 UP BND1      Z_585_0_1  1
 UP BND1      Z_585_0_2  1
 UP BND1      Z_585_0_3  1
QUADOBJ
    Z_426_0_0  Z_585_0_0  -1.4587964690976763e-03
    Z_426_0_1  Z_585_0_1  -1.4587964690976763e-03
    Z_426_0_2  Z_585_0_2  -1.4587964690976763e-03
    Z_426_0_3  Z_585_0_3  -1.4587964690976763e-03
    Z_426_1_0  Z_585_0_0  -7.7879935100054060e-03
    Z_426_1_1  Z_585_0_1  -7.7879935100054060e-03
    Z_426_1_2  Z_585_0_2  -7.7879935100054060e-03
    Z_426_1_3  Z_585_0_3  -7.7879935100054060e-03
    Z_426_4_0  Z_585_0_0  -2.4691358024691353e-03
    Z_426_4_1  Z_585_0_1  -2.4691358024691353e-03
    Z_426_4_2  Z_585_0_2  -2.4691358024691353e-03
    Z_426_4_3  Z_585_0_3  -2.4691358024691353e-03
    Z_426_5_0  Z_585_0_0  -1.9944598337950134e-02
    Z_426_5_1  Z_585_0_1  -1.9944598337950134e-02
    Z_426_5_2  Z_585_0_2  -1.9944598337950134e-02
    Z_426_5_3  Z_585_0_3  -1.9944598337950134e-02
    Z_426_3_0  Z_585_0_0  -1.9944598337950134e-02
    Z_426_3_1  Z_585_0_1  -1.9944598337950134e-02
    Z_426_3_2  Z_585_0_2  -1.9944598337950134e-02
    Z_426_3_3  Z_585_0_3  -1.9944598337950134e-02
ENDATA
