ilp_joint/output/deposition_ilp.sol
# Solution for model deposition_srl_ilp
# Objective value = 5.5430869634908833e+00
Z_65_0_0 0
Z_65_0_1 0
Z_65_0_2 0
Z_65_0_3 0
Z_65_0_4 1
Z_65_1_0 0
Z_65_1_1 0
Z_65_1_2 0
Z_65_1_3 0
Z_65_1_4 1
Z_65_8_0 0
Z_65_8_1 0
Z_65_8_2 1
Z_65_8_3 0
Z_65_8_4 0
Z_224_1_0 1
Z_224_1_1 0
Z_224_1_2 0
Z_224_1_3 0
Z_224_1_4 0
Z_224_2_0 0
Z_224_2_1 0
Z_224_2_2 1
Z_224_2_3 0
Z_224_2_4 0
Z_224_0_0 0
Z_224_0_1 0
Z_224_0_2 0
Z_224_0_3 0
Z_224_0_4 1
Z_224_5_0 0
Z_224_5_1 0
Z_224_5_2 0
Z_224_5_3 0
Z_224_5_4 1
Z_224_3_0 0
Z_224_3_1 0
Z_224_3_2 0
Z_224_3_3 0
Z_224_3_4 1
